NAME          Example2
ROWS
 N  OBJ
 L  C1
 L  C2
 G  C3
COLUMNS
    X1                  OBJ                                       1
    X2                  OBJ                                       1
    Y1                  C1                                        1
    X1                  C1                                       -1
    Y2                  C2                                        1
    X2                  C2                                       -1
    X1                  C3                                        1
    Y2                  C3                                        1
RHS
    rhs                 C3                                        1
BOUNDS
 BV bnd                 X1
 BV bnd                 X2
 BV bnd                 Y1
 BV bnd                 Y2
ENDATA